18 16

14 14 15 4 8 12 12 9 9 7 7 13
3 7 4 7 5 9 2 8
10 14 5 10 4 10 13 7 2 5
5 6 14 8 16 4 4 3 1 8
1 15 10 15 9 5 15 12 6 14
3 3 8 9 6 7 13 5 14 11
11 11 4 12 6 5 14 5 2 9 8 13
14 8 5 4 12 9 13 9
7 6 2 2 16 14 1 15 5 11 15 11
2 7 15 7 10 10 6 8
16 13 2 8 8 13 1 12 5 9 15 11
13 6 6 4 14 9 1 4
3 14 5 12 16 12 14 3 15 13 11 8
8 7 7 3 6 15 15 12 1 9 14 14
3 10 10 4 16 7 9 13 4 6 2 11
1 9 4 3 10 8 11 8 6 2 16 3
5 7 4 5 1 11 9 4 16 7 6 15
14 11 5 7 8 14 6 5 4 7
